min: T;
r_00_1 = 0;
r_01_1 = 0;
r_02_1 = 0;
r_03_1 = 0;
2.2 a_10_0 + 2.2 a_11_0 + 2.2 a_01_0 + 2.2 a_04_0 + 2.2 a_05_0 + r_01_0 + 11 x_01_0 <= r_04_0;
2.2 a_10_1 + 2.2 a_11_1 + 2.2 a_01_1 + 2.2 a_04_1 + 2.2 a_05_1 + r_01_1 + 11 x_01_1 <= r_04_1;
2.2 a_10_0 + 2.2 a_11_0 + 2.2 a_01_0 + 2.2 a_04_0 + 2.2 a_05_0 + r_01_0 + 11 x_01_0 <= r_05_0;
2.2 a_10_1 + 2.2 a_11_1 + 2.2 a_01_1 + 2.2 a_04_1 + 2.2 a_05_1 + r_01_1 + 11 x_01_1 <= r_05_1;
4.4 a_12_0 + 4.4 a_13_0 + 4.4 a_02_0 + 4.4 a_06_0 + 4.4 a_07_0 + r_02_0 + 11 x_02_0 <= r_06_0;
4.4 a_12_1 + 4.4 a_13_1 + 4.4 a_02_1 + 4.4 a_06_1 + 4.4 a_07_1 + r_02_1 + 11 x_02_1 <= r_06_1;
4.4 a_12_0 + 4.4 a_13_0 + 4.4 a_02_0 + 4.4 a_06_0 + 4.4 a_07_0 + r_02_0 + 11 x_02_0 <= r_07_0;
4.4 a_12_1 + 4.4 a_13_1 + 4.4 a_02_1 + 4.4 a_06_1 + 4.4 a_07_1 + r_02_1 + 11 x_02_1 <= r_07_1;
4.4 a_14_0 + 4.4 a_15_0 + 4.4 a_03_0 + 4.4 a_08_0 + 4.4 a_09_0 + r_03_0 + 11 x_03_0 <= r_08_0;
4.4 a_14_1 + 4.4 a_15_1 + 4.4 a_03_1 + 4.4 a_08_1 + 4.4 a_09_1 + r_03_1 + 11 x_03_1 <= r_08_1;
4.4 a_14_0 + 4.4 a_15_0 + 4.4 a_03_0 + 4.4 a_08_0 + 4.4 a_09_0 + r_03_0 + 11 x_03_0 <= r_09_0;
4.4 a_14_1 + 4.4 a_15_1 + 4.4 a_03_1 + 4.4 a_08_1 + 4.4 a_09_1 + r_03_1 + 11 x_03_1 <= r_09_1;
4.4 a_10_0 + 4.4 a_04_0 + r_04_0 + 11 x_04_0 <= r_10_0;
4.4 a_10_1 + 4.4 a_04_1 + r_04_1 + 11 x_04_1 <= r_10_1;
4.4 a_11_0 + 4.4 a_05_0 + r_05_0 + 11 x_05_0 <= r_11_0;
4.4 a_11_1 + 4.4 a_05_1 + r_05_1 + 11 x_05_1 <= r_11_1;
4.4 a_12_0 + 4.4 a_06_0 + r_06_0 + 11 x_06_0 <= r_12_0;
4.4 a_12_1 + 4.4 a_06_1 + r_06_1 + 11 x_06_1 <= r_12_1;
4.4 a_13_0 + 4.4 a_07_0 + r_07_0 + 11 x_07_0 <= r_13_0;
4.4 a_13_1 + 4.4 a_07_1 + r_07_1 + 11 x_07_1 <= r_13_1;
2.2 a_14_0 + 2.2 a_08_0 + r_08_0 + 11 x_08_0 <= r_14_0;
2.2 a_14_1 + 2.2 a_08_1 + r_08_1 + 11 x_08_1 <= r_14_1;
2.2 a_15_0 + 2.2 a_09_0 + r_09_0 + 11 x_09_0 <= r_15_0;
2.2 a_15_1 + 2.2 a_09_1 + r_09_1 + 11 x_09_1 <= r_15_1;
r_00_0 x_00_0 <= t_00_0;
r_00_1 x_00_1 <= t_00_1;
2.2 a_10_0 + 2.2 a_11_0 + 2.2 a_01_0 + 2.2 a_04_0 + 2.2 a_05_0 + 11 x_01_0 + r_01_0 x_01_0 <= t_01_0;
2.2 a_10_1 + 2.2 a_11_1 + 2.2 a_01_1 + 2.2 a_04_1 + 2.2 a_05_1 + 11 x_01_1 + r_01_1 x_01_1 <= t_01_1;
4.4 a_12_0 + 4.4 a_13_0 + 4.4 a_02_0 + 4.4 a_06_0 + 4.4 a_07_0 + 11 x_02_0 + r_02_0 x_02_0 <= t_02_0;
4.4 a_12_1 + 4.4 a_13_1 + 4.4 a_02_1 + 4.4 a_06_1 + 4.4 a_07_1 + 11 x_02_1 + r_02_1 x_02_1 <= t_02_1;
4.4 a_14_0 + 4.4 a_15_0 + 4.4 a_03_0 + 4.4 a_08_0 + 4.4 a_09_0 + 11 x_03_0 + r_03_0 x_03_0 <= t_03_0;
4.4 a_14_1 + 4.4 a_15_1 + 4.4 a_03_1 + 4.4 a_08_1 + 4.4 a_09_1 + 11 x_03_1 + r_03_1 x_03_1 <= t_03_1;
4.4 a_10_0 + 4.4 a_04_0 + 11 x_04_0 + r_04_0 x_04_0 <= t_04_0;
4.4 a_10_1 + 4.4 a_04_1 + 11 x_04_1 + r_04_1 x_04_1 <= t_04_1;
4.4 a_11_0 + 4.4 a_05_0 + 11 x_05_0 + r_05_0 x_05_0 <= t_04_0;
4.4 a_11_1 + 4.4 a_05_1 + 11 x_05_1 + r_05_1 x_05_1 <= t_04_1;
4.4 a_12_0 + 4.4 a_06_0 + 11 x_06_0 + r_06_0 x_06_0 <= t_05_0;
4.4 a_12_1 + 4.4 a_06_1 + 11 x_06_1 + r_06_1 x_06_1 <= t_05_1;
4.4 a_13_0 + 4.4 a_07_0 + 11 x_07_0 + r_07_0 x_07_0 <= t_05_0;
4.4 a_13_1 + 4.4 a_07_1 + 11 x_07_1 + r_07_1 x_07_1 <= t_05_1;
2.2 a_14_0 + 2.2 a_08_0 + 11 x_08_0 + r_08_0 x_08_0 <= t_06_0;
2.2 a_14_1 + 2.2 a_08_1 + 11 x_08_1 + r_08_1 x_08_1 <= t_06_1;
2.2 a_15_0 + 2.2 a_09_0 + 11 x_09_0 + r_09_0 x_09_0 <= t_06_0;
2.2 a_15_1 + 2.2 a_09_1 + 11 x_09_1 + r_09_1 x_09_1 <= t_06_1;
4.4 a_10_0 + 11 x_10_0 + r_10_0 x_10_0 <= t_07_0;
4.4 a_10_1 + 11 x_10_1 + r_10_1 x_10_1 <= t_07_1;
4.4 a_11_0 + 11 x_11_0 + r_11_0 x_11_0 <= t_07_0;
4.4 a_11_1 + 11 x_11_1 + r_11_1 x_11_1 <= t_07_1;
4.4 a_12_0 + 11 x_12_0 + r_12_0 x_12_0 <= t_07_0;
4.4 a_12_1 + 11 x_12_1 + r_12_1 x_12_1 <= t_07_1;
4.4 a_13_0 + 11 x_13_0 + r_13_0 x_13_0 <= t_07_0;
4.4 a_13_1 + 11 x_13_1 + r_13_1 x_13_1 <= t_07_1;
4.4 a_14_0 + 11 x_14_0 + r_14_0 x_14_0 <= t_07_0;
4.4 a_14_1 + 11 x_14_1 + r_14_1 x_14_1 <= t_07_1;
4.4 a_15_0 + 11 x_15_0 + r_15_0 x_15_0 <= t_07_0;
4.4 a_15_1 + 11 x_15_1 + r_15_1 x_15_1 <= t_07_1;
r_00_1 <= r_00_0;
2.2 a_10_1 + 2.2 a_11_1 + 2.2 a_01_1 + 2.2 a_04_1 + 2.2 a_05_1 + r_01_1 + 11 x_01_1 <= r_01_0;
4.4 a_12_1 + 4.4 a_13_1 + 4.4 a_02_1 + 4.4 a_06_1 + 4.4 a_07_1 + r_02_1 + 11 x_02_1 <= r_02_0;
4.4 a_14_1 + 4.4 a_15_1 + 4.4 a_03_1 + 4.4 a_08_1 + 4.4 a_09_1 + r_03_1 + 11 x_03_1 <= r_03_0;
4.4 a_10_1 + 4.4 a_04_1 + r_04_1 + 11 x_04_1 <= r_04_0;
4.4 a_11_1 + 4.4 a_05_1 + r_05_1 + 11 x_05_1 <= r_05_0;
4.4 a_12_1 + 4.4 a_06_1 + r_06_1 + 11 x_06_1 <= r_06_0;
4.4 a_13_1 + 4.4 a_07_1 + r_07_1 + 11 x_07_1 <= r_07_0;
2.2 a_14_1 + 2.2 a_08_1 + r_08_1 + 11 x_08_1 <= r_08_0;
2.2 a_15_1 + 2.2 a_09_1 + r_09_1 + 11 x_09_1 <= r_09_0;
4.4 a_10_1 + r_10_1 + 11 x_10_1 <= r_10_0;
4.4 a_11_1 + r_11_1 + 11 x_11_1 <= r_11_0;
4.4 a_12_1 + r_12_1 + 11 x_12_1 <= r_12_0;
4.4 a_13_1 + r_13_1 + 11 x_13_1 <= r_13_0;
4.4 a_14_1 + r_14_1 + 11 x_14_1 <= r_14_0;
4.4 a_15_1 + r_15_1 + 11 x_15_1 <= r_15_0;
16 a_00_1 + t_00_1 <= t_00_0;
20 a_01_1 + t_01_1 <= t_01_0;
16 a_02_1 + t_02_1 <= t_02_0;
16 a_03_1 + t_03_1 <= t_03_0;
20 a_04_1 + 20 a_05_1 + t_04_1 <= t_04_0;
16 a_06_1 + 16 a_07_1 + t_05_1 <= t_05_0;
20 a_08_1 + 20 a_09_1 + t_06_1 <= t_06_0;
20 a_10_1 + 20 a_11_1 + 20 a_12_1 + 20 a_13_1 + 20 a_14_1 + 20 a_15_1 + t_07_1 <= t_07_0;
16 a_00_0 + t_00_0 <= T;
20 a_01_0 + t_01_0 <= T;
16 a_02_0 + t_02_0 <= T;
16 a_03_0 + t_03_0 <= T;
20 a_04_0 + 20 a_05_0 + t_04_0 <= T;
16 a_06_0 + 16 a_07_0 + t_05_0 <= T;
20 a_08_0 + 20 a_09_0 + t_06_0 <= T;
20 a_10_0 + 20 a_11_0 + 20 a_12_0 + 20 a_13_0 + 20 a_14_0 + 20 a_15_0 + t_07_0 <= T;
a_00_0 <= 10000 x_00_0;
a_00_1 <= 10000 x_00_1;
a_10_0 + a_11_0 + a_01_0 + a_04_0 + a_05_0 <= 10000 x_01_0;
a_10_1 + a_11_1 + a_01_1 + a_04_1 + a_05_1 <= 10000 x_01_1;
a_12_0 + a_13_0 + a_02_0 + a_06_0 + a_07_0 <= 10000 x_02_0;
a_12_1 + a_13_1 + a_02_1 + a_06_1 + a_07_1 <= 10000 x_02_1;
a_14_0 + a_15_0 + a_03_0 + a_08_0 + a_09_0 <= 10000 x_03_0;
a_14_1 + a_15_1 + a_03_1 + a_08_1 + a_09_1 <= 10000 x_03_1;
a_10_0 + a_04_0 <= 10000 x_04_0;
a_10_1 + a_04_1 <= 10000 x_04_1;
a_11_0 + a_05_0 <= 10000 x_05_0;
a_11_1 + a_05_1 <= 10000 x_05_1;
a_12_0 + a_06_0 <= 10000 x_06_0;
a_12_1 + a_06_1 <= 10000 x_06_1;
a_13_0 + a_07_0 <= 10000 x_07_0;
a_13_1 + a_07_1 <= 10000 x_07_1;
a_14_0 + a_08_0 <= 10000 x_08_0;
a_14_1 + a_08_1 <= 10000 x_08_1;
a_15_0 + a_09_0 <= 10000 x_09_0;
a_15_1 + a_09_1 <= 10000 x_09_1;
a_10_0 <= 10000 x_10_0;
a_10_1 <= 10000 x_10_1;
a_11_0 <= 10000 x_11_0;
a_11_1 <= 10000 x_11_1;
a_12_0 <= 10000 x_12_0;
a_12_1 <= 10000 x_12_1;
a_13_0 <= 10000 x_13_0;
a_13_1 <= 10000 x_13_1;
a_14_0 <= 10000 x_14_0;
a_14_1 <= 10000 x_14_1;
a_15_0 <= 10000 x_15_0;
a_15_1 <= 10000 x_15_1;
a_10_0 + a_10_1 + a_11_0 + a_11_1 + a_12_0 + a_12_1 + a_13_0 + a_13_1 + a_14_0 + a_14_1 + a_15_0 + a_15_1 + a_00_0 + a_00_1 + a_01_0 + a_01_1
   + a_02_0 + a_02_1 + a_03_0 + a_03_1 + a_04_0 + a_04_1 + a_05_0 + a_05_1 + a_06_0 + a_06_1 + a_07_0 + a_07_1 + a_08_0 + a_08_1 + a_09_0 +
   a_09_1 = 10000;
r_00_0 = rk_00_0;
r_00_1 = rk_00_1;
2.2 a_10_0 + 2.2 a_11_0 + 2.2 a_01_0 + 2.2 a_04_0 + 2.2 a_05_0 + r_01_0 + 11 x_01_0 = rk_01_0;
2.2 a_10_1 + 2.2 a_11_1 + 2.2 a_01_1 + 2.2 a_04_1 + 2.2 a_05_1 + r_01_1 + 11 x_01_1 = rk_01_1;
4.4 a_12_0 + 4.4 a_13_0 + 4.4 a_02_0 + 4.4 a_06_0 + 4.4 a_07_0 + r_02_0 + 11 x_02_0 = rk_02_0;
4.4 a_12_1 + 4.4 a_13_1 + 4.4 a_02_1 + 4.4 a_06_1 + 4.4 a_07_1 + r_02_1 + 11 x_02_1 = rk_02_1;
4.4 a_14_0 + 4.4 a_15_0 + 4.4 a_03_0 + 4.4 a_08_0 + 4.4 a_09_0 + r_03_0 + 11 x_03_0 = rk_03_0;
4.4 a_14_1 + 4.4 a_15_1 + 4.4 a_03_1 + 4.4 a_08_1 + 4.4 a_09_1 + r_03_1 + 11 x_03_1 = rk_03_1;
4.4 a_10_0 + 4.4 a_04_0 + r_04_0 + 11 x_04_0 = rk_04_0;
4.4 a_10_1 + 4.4 a_04_1 + r_04_1 + 11 x_04_1 = rk_04_1;
4.4 a_11_0 + 4.4 a_05_0 + r_05_0 + 11 x_05_0 = rk_05_0;
4.4 a_11_1 + 4.4 a_05_1 + r_05_1 + 11 x_05_1 = rk_05_1;
4.4 a_12_0 + 4.4 a_06_0 + r_06_0 + 11 x_06_0 = rk_06_0;
4.4 a_12_1 + 4.4 a_06_1 + r_06_1 + 11 x_06_1 = rk_06_1;
4.4 a_13_0 + 4.4 a_07_0 + r_07_0 + 11 x_07_0 = rk_07_0;
4.4 a_13_1 + 4.4 a_07_1 + r_07_1 + 11 x_07_1 = rk_07_1;
2.2 a_14_0 + 2.2 a_08_0 + r_08_0 + 11 x_08_0 = rk_08_0;
2.2 a_14_1 + 2.2 a_08_1 + r_08_1 + 11 x_08_1 = rk_08_1;
2.2 a_15_0 + 2.2 a_09_0 + r_09_0 + 11 x_09_0 = rk_09_0;
2.2 a_15_1 + 2.2 a_09_1 + r_09_1 + 11 x_09_1 = rk_09_1;
4.4 a_10_0 + r_10_0 + 11 x_10_0 = rk_10_0;
4.4 a_10_1 + r_10_1 + 11 x_10_1 = rk_10_1;
4.4 a_11_0 + r_11_0 + 11 x_11_0 = rk_11_0;
4.4 a_11_1 + r_11_1 + 11 x_11_1 = rk_11_1;
4.4 a_12_0 + r_12_0 + 11 x_12_0 = rk_12_0;
4.4 a_12_1 + r_12_1 + 11 x_12_1 = rk_12_1;
4.4 a_13_0 + r_13_0 + 11 x_13_0 = rk_13_0;
4.4 a_13_1 + r_13_1 + 11 x_13_1 = rk_13_1;
4.4 a_14_0 + r_14_0 + 11 x_14_0 = rk_14_0;
4.4 a_14_1 + r_14_1 + 11 x_14_1 = rk_14_1;
4.4 a_15_0 + r_15_0 + 11 x_15_0 = rk_15_0;
4.4 a_15_1 + r_15_1 + 11 x_15_1 = rk_15_1;
16 a_00_0 + t_00_0 = tk_00_0;
16 a_00_1 + t_00_1 = tk_00_1;
20 a_01_0 + t_01_0 = tk_01_0;
20 a_01_1 + t_01_1 = tk_01_1;
16 a_02_0 + t_02_0 = tk_02_0;
16 a_02_1 + t_02_1 = tk_02_1;
16 a_03_0 + t_03_0 = tk_03_0;
16 a_03_1 + t_03_1 = tk_03_1;
20 a_04_0 + 20 a_05_0 + t_04_0 = tk_04_0;
20 a_04_1 + 20 a_05_1 + t_04_1 = tk_04_1;
16 a_06_0 + 16 a_07_0 + t_05_0 = tk_05_0;
16 a_06_1 + 16 a_07_1 + t_05_1 = tk_05_1;
20 a_08_0 + 20 a_09_0 + t_06_0 = tk_06_0;
20 a_08_1 + 20 a_09_1 + t_06_1 = tk_06_1;
20 a_10_0 + 20 a_11_0 + 20 a_12_0 + 20 a_13_0 + 20 a_14_0 + 20 a_15_0 + t_07_0 = tk_07_0;
20 a_10_1 + 20 a_11_1 + 20 a_12_1 + 20 a_13_1 + 20 a_14_1 + 20 a_15_1 + t_07_1 = tk_07_1;
m = 2;
pv_0 = 0;
pv_1 = 0;
pv_2 = 0;
pv_3 = 0;
pv_4 = 1;
pv_5 = 1;
pv_6 = 2;
pv_7 = 2;
pv_8 = 3;
pv_9 = 3;
pv_10 = 4;
pv_11 = 5;
pv_12 = 6;
pv_13 = 7;
pv_14 = 8;
pv_15 = 9;
pc_0 = 0;
pc_1 = 1;
pc_2 = 2;
pc_3 = 3;
pc_4 = 4;
pc_5 = 4;
pc_6 = 5;
pc_7 = 5;
pc_8 = 6;
pc_9 = 6;
pc_10 = 7;
pc_11 = 7;
pc_12 = 7;
pc_13 = 7;
pc_14 = 7;
pc_15 = 7;
int x_00_0, x_00_1, x_01_0, x_01_1, x_02_0, x_02_1, x_03_0, x_03_1, x_04_0,
x_04_1, x_05_0, x_05_1, x_06_0, x_06_1, x_07_0, x_07_1, x_08_0, x_08_1,
x_09_0, x_09_1, x_10_0, x_10_1, x_11_0, x_11_1, x_12_0, x_12_1, x_13_0,
x_13_1, x_14_0, x_14_1, x_15_0, x_15_1;